(set-logic BV) (define-fun origCir ((n373 Bool) (n371 Bool) (n379 Bool) (n376 Bool)) Bool (and (and n379 (not (xor n371 n373))) n376)) (synth-fun skel ((n373 Bool) (n371 Bool) (n379 Bool) (n376 Bool)) Bool) (declare-var n373 Bool) (declare-var n371 Bool) (declare-var n379 Bool) (declare-var n376 Bool) (constraint (= (origCir n373 n371 n379 n376) (skel n373 n371 n379 n376))) (check-synth)
